DIMACS_lns/graph-1000-243.col
p edge 1000 1836
e 1 223
e 1 706
e 1 602
e 2 435
e 2 989
e 2 300
e 2 426
e 2 558
e 3 715
e 3 487
e 3 517
e 5 498
e 5 709
e 5 880
e 5 520
e 9 493
e 9 885
e 9 307
e 10 588
e 10 886
e 10 417
e 10 712
e 10 144
e 10 284
e 10 542
e 10 173
e 11 466
e 11 53
e 11 979
e 11 677
e 11 126
e 11 813
e 12 143
e 12 552
e 12 149
e 12 929
e 12 189
e 14 115
e 14 439
e 14 286
e 14 308
e 15 318
e 15 345
e 15 609
e 15 237
e 15 974
e 16 115
e 16 213
e 16 724
e 16 549
e 17 596
e 17 583
e 17 78
e 18 709
e 18 273
e 18 479
e 18 115
e 18 463
e 19 904
e 19 420
e 19 134
e 19 685
e 20 871
e 20 376
e 20 690
e 20 523
e 20 825
e 21 659
e 21 228
e 21 170
e 22 436
e 22 201
e 22 269
e 22 108
e 23 687
e 23 708
e 23 515
e 23 471
e 23 487
e 24 352
e 24 833
e 24 234
e 26 178
e 26 480
e 26 207
e 27 907
e 27 937
e 27 710
e 28 898
e 28 182
e 28 453
e 28 366
e 29 211
e 29 31
e 29 579
e 29 968
e 31 323
e 31 128
e 31 464
e 32 318
e 32 576
e 32 623
e 32 548
e 32 773
e 32 412
e 32 37
e 33 630
e 33 802
e 33 957
e 33 126
e 33 152
e 33 803
e 33 386
e 33 492
e 33 156
e 34 948
e 34 348
e 34 445
e 34 825
e 35 134
e 35 574
e 35 743
e 36 579
e 36 591
e 36 779
e 37 637
e 37 714
e 37 683
e 38 46
e 38 535
e 38 527
e 38 580
e 38 564
e 38 359
e 38 959
e 38 577
e 38 751
e 40 996
e 40 567
e 40 636
e 40 418
e 40 452
e 40 894
e 40 539
e 40 352
e 41 293
e 41 853
e 41 600
e 45 313
e 45 528
e 45 853
e 45 628
e 45 950
e 46 463
e 46 503
e 46 941
e 47 440
e 47 215
e 47 787
e 47 558
e 47 358
e 48 922
e 48 543
e 48 276
e 48 54
e 49 783
e 49 337
e 49 318
e 49 775
e 49 373
e 49 487
e 49 381
e 51 440
e 51 532
e 51 454
e 51 445
e 51 659
e 51 75
e 51 959
e 52 894
e 52 451
e 52 955
e 52 891
e 52 882
e 52 529
e 53 907
e 53 193
e 53 608
e 53 394
e 53 966
e 53 133
e 54 634
e 54 342
e 54 927
e 54 433
e 54 469
e 55 510
e 55 606
e 55 642
e 56 191
e 56 342
e 56 766
e 56 706
e 57 725
e 57 367
e 57 317
e 59 384
e 59 518
e 59 170
e 60 603
e 60 957
e 60 274
e 62 988
e 62 853
e 62 408
e 62 636
e 62 739
e 63 728
e 63 395
e 63 983
e 63 210
e 63 515
e 63 467
e 64 950
e 64 402
e 64 418
e 64 68
e 64 478
e 66 371
e 66 837
e 66 860
e 67 373
e 67 307
e 67 744
e 68 971
e 68 780
e 68 526
e 68 722
e 69 476
e 69 266
e 69 860
e 69 585
e 70 432
e 70 904
e 70 478
e 73 395
e 73 704
e 73 805
e 73 735
e 74 484
e 74 98
e 74 159
e 74 935
e 75 208
e 75 1000
e 75 752
e 75 363
e 76 90
e 76 315
e 76 453
e 76 306
e 76 108
e 78 552
e 78 118
e 78 85
e 84 475
e 84 426
e 84 386
e 84 187
e 84 417
e 85 405
e 85 131
e 86 713
e 86 715
e 86 909
e 86 544
e 86 617
e 87 186
e 87 120
e 87 639
e 87 897
e 87 811
e 88 478
e 88 737
e 88 866
e 89 385
e 89 607
e 89 605
e 89 236
e 89 698
e 90 918
e 90 989
e 91 842
e 91 374
e 91 971
e 92 622
e 92 930
e 92 541
e 92 480
e 92 690
e 92 912
e 92 543
e 92 453
e 92 866
e 94 917
e 94 991
e 94 760
e 94 532
e 94 273
e 94 398
e 94 264
e 94 993
e 94 694
e 95 917
e 95 580
e 95 130
e 95 255
e 95 600
e 95 307
e 95 305
e 96 508
e 96 706
e 96 98
e 96 254
e 96 430
e 97 715
e 97 856
e 97 871
e 98 375
e 98 445
e 99 538
e 99 387
e 99 866
e 100 549
e 100 461
e 100 451
e 100 371
e 100 841
e 100 550
e 100 317
e 100 223
e 103 271
e 103 524
e 103 432
e 103 851
e 104 273
e 104 276
e 104 955
e 104 649
e 105 552
e 105 572
e 105 323
e 105 659
e 105 463
e 105 727
e 106 821
e 106 334
e 106 567
e 106 351
e 107 600
e 107 587
e 107 698
e 107 755
e 108 879
e 108 869
e 108 844
e 109 405
e 109 807
e 109 263
e 109 935
e 109 219
e 112 323
e 112 541
e 112 465
e 112 307
e 112 725
e 113 961
e 113 158
e 113 464
e 114 247
e 114 332
e 114 995
e 114 531
e 114 521
e 115 843
e 115 880
e 115 320
e 115 960
e 116 201
e 116 650
e 116 642
e 116 837
e 116 827
e 118 569
e 118 399
e 118 650
e 119 901
e 119 469
e 119 131
e 119 256
e 119 634
e 119 209
e 119 747
e 120 140
e 120 720
e 120 479
e 121 391
e 121 936
e 121 904
e 124 376
e 124 176
e 124 274
e 125 529
e 125 587
e 125 667
e 126 305
e 126 696
e 127 513
e 127 726
e 127 813
e 127 688
e 128 865
e 128 460
e 129 918
e 129 808
e 129 302
e 130 439
e 130 937
e 130 381
e 130 785
e 130 586
e 131 573
e 131 225
e 131 475
e 131 435
e 133 815
e 133 461
e 133 156
e 134 899
e 134 642
e 134 887
e 134 823
e 134 880
e 134 968
e 135 527
e 135 958
e 135 447
e 136 643
e 136 159
e 136 440
e 137 582
e 137 518
e 137 891
e 139 680
e 139 204
e 139 952
e 140 284
e 140 246
e 140 602
e 141 357
e 141 637
e 141 757
e 142 583
e 142 189
e 142 864
e 143 621
e 143 842
e 143 466
e 143 152
e 143 357
e 143 575
e 143 417
e 143 513
e 144 947
e 144 667
e 144 950
e 145 219
e 145 632
e 145 842
e 145 267
e 146 531
e 146 991
e 146 285
e 149 397
e 149 965
e 149 562
e 149 299
e 149 246
e 149 629
e 151 368
e 151 951
e 151 995
e 152 583
e 152 531
e 152 844
e 152 743
e 153 904
e 153 433
e 153 520
e 155 392
e 155 604
e 155 191
e 155 954
e 155 429
e 155 269
e 155 321
e 156 646
e 156 570
e 156 401
e 156 730
e 156 227
e 156 436
e 158 476
e 158 418
e 159 651
e 159 555
e 159 770
e 159 239
e 161 721
e 161 267
e 161 976
e 161 981
e 166 547
e 166 371
e 166 897
e 166 950
e 166 724
e 166 435
e 166 572
e 168 727
e 168 206
e 168 178
e 170 300
e 170 553
e 170 545
e 170 681
e 170 192
e 171 493
e 171 634
e 171 383
e 172 257
e 172 628
e 172 639
e 173 677
e 173 483
e 176 192
e 176 469
e 176 557
e 178 193
e 178 497
e 178 560
e 180 850
e 180 614
e 180 698
e 180 251
e 181 243
e 181 201
e 181 251
e 181 458
e 182 571
e 182 431
e 182 291
e 182 917
e 184 887
e 184 215
e 184 508
e 186 375
e 186 883
e 186 687
e 186 543
e 187 424
e 187 259
e 187 465
e 189 412
e 189 676
e 189 203
e 189 619
e 189 527
e 190 720
e 190 694
e 190 606
e 190 308
e 191 296
e 191 917
e 191 865
e 191 207
e 192 769
e 192 380
e 192 243
e 193 791
e 193 608
e 194 257
e 194 543
e 194 388
e 194 796
e 194 973
e 195 901
e 195 993
e 195 558
e 197 240
e 197 327
e 197 989
e 197 368
e 197 352
e 197 823
e 197 983
e 201 546
e 201 959
e 201 822
e 201 829
e 201 239
e 203 487
e 203 998
e 203 619
e 203 688
e 203 709
e 203 731
e 204 325
e 204 537
e 204 572
e 206 467
e 206 938
e 206 718
e 207 650
e 207 258
e 207 912
e 207 508
e 207 349
e 208 718
e 208 430
e 208 737
e 209 487
e 209 693
e 209 469
e 209 779
e 210 486
e 210 520
e 210 719
e 210 663
e 210 577
e 211 273
e 211 466
e 211 783
e 211 718
e 211 395
e 213 654
e 213 415
e 215 922
e 217 870
e 217 335
e 217 543
e 219 429
e 219 732
e 223 730
e 223 503
e 223 247
e 225 396
e 225 393
e 225 785
e 225 253
e 226 776
e 226 584
e 226 998
e 227 937
e 227 259
e 228 447
e 228 969
e 228 943
e 228 392
e 229 587
e 229 583
e 229 615
e 229 468
e 229 246
e 230 960
e 230 367
e 230 806
e 231 652
e 231 391
e 231 981
e 231 628
e 234 323
e 234 994
e 234 859
e 235 815
e 235 851
e 235 896
e 235 742
e 236 292
e 236 859
e 236 622
e 236 328
e 237 743
e 237 358
e 237 574
e 238 399
e 238 670
e 238 412
e 238 898
e 239 609
e 239 515
e 239 462
e 239 742
e 239 642
e 239 756
e 239 920
e 239 645
e 240 688
e 240 401
e 240 721
e 241 917
e 241 670
e 241 700
e 242 498
e 242 500
e 242 615
e 242 313
e 242 608
e 243 571
e 243 478
e 243 461
e 244 752
e 244 421
e 244 256
e 245 468
e 245 987
e 245 320
e 245 264
e 246 547
e 246 822
e 246 767
e 247 634
e 247 621
e 247 309
e 249 835
e 249 615
e 249 386
e 251 952
e 253 573
e 253 623
e 253 826
e 253 866
e 254 509
e 254 572
e 254 690
e 254 974
e 255 753
e 255 370
e 255 704
e 255 892
e 256 388
e 257 981
e 258 799
e 258 568
e 258 314
e 258 385
e 259 692
e 259 387
e 259 570
e 261 771
e 261 728
e 261 853
e 261 943
e 261 511
e 261 523
e 261 937
e 261 929
e 262 632
e 262 605
e 262 568
e 263 264
e 263 526
e 263 623
e 263 843
e 264 584
e 265 730
e 265 888
e 265 828
e 266 384
e 266 910
e 267 810
e 267 958
e 267 748
e 267 693
e 267 562
e 269 426
e 270 676
e 270 892
e 270 568
e 270 297
e 271 796
e 271 314
e 271 853
e 271 841
e 271 588
e 273 442
e 273 560
e 273 400
e 273 341
e 274 559
e 274 745
e 274 544
e 274 725
e 274 434
e 275 877
e 275 440
e 275 931
e 276 409
e 277 891
e 277 788
e 277 348
e 279 882
e 279 303
e 279 689
e 279 462
e 279 766
e 281 846
e 281 845
e 281 557
e 281 647
e 283 973
e 283 701
e 283 588
e 283 691
e 283 312
e 284 494
e 284 334
e 285 924
e 285 609
e 285 992
e 285 893
e 286 525
e 286 863
e 287 870
e 287 494
e 287 621
e 290 767
e 290 537
e 290 375
e 291 444
e 291 833
e 291 905
e 292 299
e 292 856
e 293 589
e 293 648
e 293 432
e 293 553
e 293 748
e 294 352
e 294 435
e 294 474
e 294 374
e 296 897
e 296 927
e 296 495
e 297 529
e 297 628
e 297 753
e 297 467
e 297 827
e 297 946
e 297 931
e 297 759
e 297 549
e 297 320
e 299 872
e 299 836
e 300 686
e 300 593
e 300 489
e 302 845
e 302 497
e 302 755
e 302 659
e 303 670
e 303 703
e 303 983
e 303 741
e 305 810
e 306 462
e 306 982
e 307 503
e 307 682
e 307 564
e 307 579
e 308 313
e 308 510
e 308 337
e 309 514
e 309 568
e 310 917
e 310 979
e 310 318
e 310 335
e 312 614
e 312 416
e 312 318
e 312 492
e 313 971
e 313 398
e 313 934
e 313 647
e 313 342
e 314 494
e 315 755
e 315 719
e 315 936
e 315 497
e 317 721
e 317 570
e 317 324
e 318 502
e 318 628
e 318 924
e 318 739
e 318 410
e 320 611
e 320 822
e 320 835
e 321 476
e 321 434
e 322 564
e 322 413
e 322 648
e 322 860
e 322 352
e 322 393
e 323 396
e 323 901
e 323 863
e 323 893
e 324 771
e 324 799
e 324 695
e 324 994
e 325 716
e 325 350
e 325 757
e 325 974
e 327 993
e 327 550
e 327 338
e 328 788
e 328 689
e 328 647
e 329 759
e 329 782
e 329 513
e 329 962
e 329 530
e 332 989
e 332 802
e 332 584
e 334 954
e 334 486
e 334 826
e 335 991
e 335 883
e 335 653
e 335 961
e 335 375
e 336 572
e 336 788
e 336 651
e 336 603
e 337 850
e 337 638
e 338 752
e 338 952
e 338 714
e 338 366
e 338 528
e 339 394
e 339 868
e 339 373
e 339 893
e 339 773
e 341 982
e 341 891
e 342 432
e 342 898
e 344 521
e 344 615
e 344 420
e 344 851
e 345 838
e 345 409
e 347 461
e 347 547
e 347 386
e 347 999
e 348 994
e 348 732
e 348 534
e 348 624
e 349 700
e 349 799
e 349 638
e 349 713
e 349 737
e 349 511
e 350 642
e 350 549
e 350 643
e 350 931
e 351 813
e 351 466
e 351 932
e 351 501
e 351 808
e 352 434
e 352 828
e 352 749
e 352 860
e 354 936
e 354 597
e 354 387
e 354 796
e 357 381
e 357 968
e 357 608
e 357 736
e 357 979
e 357 858
e 357 676
e 358 370
e 358 509
e 358 406
e 359 935
e 359 764
e 360 706
e 360 789
e 360 406
e 360 585
e 362 836
e 362 363
e 362 710
e 363 821
e 363 949
e 363 580
e 363 542
e 363 970
e 364 756
e 364 832
e 364 654
e 366 932
e 366 983
e 366 739
e 367 580
e 367 434
e 368 742
e 368 838
e 368 917
e 368 941
e 368 473
e 370 961
e 370 825
e 371 991
e 371 883
e 371 694
e 371 720
e 371 826
e 371 774
e 371 636
e 372 870
e 372 739
e 372 734
e 372 504
e 372 901
e 373 563
e 373 535
e 373 449
e 374 964
e 374 567
e 374 736
e 375 939
e 375 458
e 375 672
e 375 553
e 376 726
e 376 885
e 376 630
e 376 638
e 378 981
e 378 989
e 378 767
e 379 735
e 379 554
e 379 869
e 379 861
e 379 739
e 380 812
e 380 856
e 380 827
e 381 606
e 381 461
e 383 522
e 383 426
e 383 747
e 383 597
e 383 433
e 383 907
e 384 689
e 385 899
e 385 712
e 385 851
e 387 985
e 387 683
e 387 578
e 388 707
e 388 963
e 388 934
e 388 470
e 388 671
e 389 542
e 389 984
e 389 475
e 389 531
e 390 909
e 390 727
e 390 459
e 390 489
e 390 981
e 391 459
e 391 712
e 391 723
e 391 930
e 392 798
e 392 899
e 393 951
e 393 743
e 394 929
e 394 466
e 394 582
e 394 645
e 395 670
e 395 825
e 395 893
e 396 634
e 396 549
e 396 723
e 397 747
e 397 653
e 398 871
e 398 552
e 399 494
e 399 720
e 400 879
e 400 910
e 400 932
e 400 773
e 400 573
e 401 681
e 401 802
e 401 421
e 401 590
e 401 964
e 402 570
e 402 965
e 402 600
e 405 693
e 405 863
e 406 899
e 406 690
e 406 645
e 408 716
e 408 698
e 408 885
e 408 782
e 409 810
e 410 567
e 410 884
e 410 646
e 410 705
e 412 579
e 412 514
e 412 864
e 413 877
e 413 498
e 415 822
e 415 876
e 416 812
e 416 609
e 416 998
e 417 504
e 417 958
e 418 839
e 418 788
e 420 431
e 420 629
e 421 549
e 421 511
e 424 429
e 424 490
e 426 688
e 426 758
e 427 653
e 427 686
e 427 753
e 427 976
e 429 909
e 429 849
e 430 885
e 430 810
e 430 760
e 430 893
e 431 596
e 431 966
e 432 970
e 432 992
e 433 774
e 433 894
e 434 653
e 434 870
e 434 527
e 435 814
e 435 830
e 435 850
e 436 831
e 436 869
e 436 706
e 439 832
e 440 654
e 440 475
e 442 849
e 442 691
e 442 924
e 442 517
e 442 629
e 442 623
e 444 650
e 444 532
e 445 574
e 445 652
e 445 532
e 447 612
e 447 609
e 449 911
e 449 944
e 451 557
e 451 814
e 451 832
e 451 958
e 452 621
e 452 939
e 452 755
e 452 976
e 452 674
e 452 944
e 452 619
e 452 493
e 453 820
e 453 904
e 454 652
e 454 894
e 454 924
e 454 836
e 458 891
e 458 583
e 458 460
e 458 814
e 459 591
e 459 781
e 460 833
e 461 643
e 462 596
e 462 846
e 462 530
e 462 682
e 464 821
e 465 612
e 466 765
e 466 660
e 467 780
e 468 637
e 469 699
e 469 911
e 470 799
e 470 479
e 470 921
e 470 993
e 471 826
e 471 637
e 471 630
e 471 840
e 473 830
e 473 920
e 473 670
e 474 851
e 474 991
e 475 489
e 475 664
e 475 500
e 478 696
e 479 801
e 479 894
e 479 938
e 480 578
e 480 843
e 483 663
e 483 674
e 483 608
e 484 695
e 484 954
e 486 590
e 487 806
e 487 887
e 487 791
e 489 911
e 489 559
e 490 500
e 490 604
e 492 686
e 492 509
e 492 550
e 492 669
e 492 823
e 492 618
e 493 688
e 494 605
e 494 740
e 495 891
e 495 693
e 496 549
e 496 760
e 496 968
e 497 742
e 497 563
e 497 527
e 498 982
e 498 501
e 500 501
e 500 614
e 500 839
e 502 588
e 502 740
e 502 649
e 502 526
e 503 720
e 503 654
e 504 904
e 504 858
e 504 632
e 504 798
e 504 752
e 504 508
e 507 716
e 507 751
e 507 712
e 507 753
e 507 686
e 507 775
e 508 692
e 508 555
e 508 517
e 510 539
e 511 529
e 513 664
e 513 771
e 513 960
e 514 873
e 514 756
e 514 575
e 515 744
e 515 831
e 517 670
e 517 957
e 517 765
e 517 767
e 518 590
e 520 769
e 520 543
e 521 787
e 521 806
e 522 629
e 522 907
e 523 757
e 523 710
e 524 820
e 524 715
e 525 768
e 525 715
e 526 777
e 526 828
e 527 781
e 527 598
e 527 674
e 527 730
e 528 580
e 528 706
e 529 846
e 529 548
e 530 680
e 531 835
e 532 932
e 534 688
e 534 681
e 535 654
e 535 821
e 535 946
e 535 765
e 537 953
e 538 941
e 538 554
e 538 911
e 539 845
e 539 1000
e 539 982
e 539 917
e 541 559
e 541 685
e 542 694
e 543 954
e 543 711
e 543 707
e 544 604
e 545 820
e 545 614
e 545 652
e 545 939
e 546 801
e 546 936
e 546 621
e 546 987
e 546 580
e 548 696
e 548 745
e 548 992
e 549 949
e 549 682
e 550 715
e 550 844
e 550 563
e 552 605
e 553 772
e 553 964
e 554 671
e 554 690
e 555 984
e 557 784
e 557 826
e 558 731
e 559 768
e 559 946
e 560 868
e 562 880
e 562 775
e 562 783
e 562 617
e 563 742
e 564 999
e 564 772
e 564 779
e 567 938
e 567 611
e 567 947
e 567 685
e 567 713
e 568 721
e 569 821
e 569 830
e 570 1000
e 570 660
e 571 612
e 571 777
e 572 840
e 572 738
e 573 785
e 573 784
e 574 994
e 575 893
e 575 759
e 575 766
e 575 643
e 575 686
e 576 590
e 576 822
e 577 830
e 577 692
e 578 803
e 580 798
e 580 591
e 582 680
e 582 944
e 583 768
e 583 730
e 583 907
e 583 731
e 584 755
e 585 685
e 585 930
e 586 777
e 586 836
e 586 706
e 587 624
e 587 781
e 587 883
e 587 612
e 588 949
e 589 830
e 589 858
e 589 777
e 590 619
e 593 963
e 593 992
e 593 843
e 593 715
e 593 999
e 596 884
e 596 642
e 597 805
e 597 774
e 598 826
e 598 738
e 600 811
e 600 649
e 600 903
e 602 716
e 602 883
e 602 934
e 603 663
e 604 946
e 604 732
e 605 948
e 605 676
e 606 634
e 606 736
e 606 682
e 606 873
e 607 767
e 607 625
e 609 735
e 609 653
e 611 922
e 611 701
e 612 722
e 612 724
e 614 788
e 614 650
e 615 761
e 617 731
e 617 996
e 617 751
e 618 627
e 618 845
e 618 777
e 619 693
e 620 745
e 620 782
e 620 712
e 622 727
e 622 648
e 622 767
e 623 802
e 623 953
e 624 770
e 625 688
e 625 782
e 627 974
e 627 721
e 629 728
e 629 725
e 629 987
e 629 911
e 630 992
e 630 887
e 630 903
e 632 773
e 634 791
e 634 739
e 636 719
e 636 698
e 637 899
e 637 693
e 639 891
e 639 907
e 639 647
e 639 829
e 643 931
e 643 938
e 643 779
e 645 664
e 645 703
e 645 707
e 645 672
e 646 837
e 646 939
e 647 759
e 647 952
e 647 993
e 648 970
e 649 835
e 650 683
e 650 747
e 651 812
e 652 701
e 652 837
e 653 760
e 653 840
e 654 863
e 654 741
e 659 796
e 660 905
e 660 703
e 660 872
e 663 944
e 664 863
e 664 796
e 667 693
e 669 838
e 669 961
e 671 981
e 672 826
e 672 780
e 674 897
e 676 941
e 676 892
e 676 730
e 676 773
e 676 689
e 677 917
e 680 1000
e 680 922
e 680 883
e 680 798
e 681 740
e 681 730
e 681 987
e 682 853
e 682 837
e 682 710
e 682 848
e 683 727
e 683 994
e 683 924
e 683 776
e 685 759
e 687 823
e 688 727
e 688 885
e 688 861
e 689 884
e 689 912
e 690 877
e 690 830
e 691 745
e 691 709
e 692 812
e 693 696
e 693 820
e 694 921
e 694 784
e 694 805
e 695 764
e 695 835
e 695 710
e 695 735
e 698 856
e 698 888
e 698 995
e 699 951
e 699 740
e 699 712
e 700 815
e 700 994
e 701 903
e 701 962
e 703 979
e 704 811
e 705 738
e 705 886
e 705 920
e 706 868
e 706 710
e 707 783
e 707 755
e 707 738
e 708 992
e 708 747
e 709 947
e 710 803
e 710 751
e 711 958
e 711 931
e 712 907
e 714 779
e 715 807
e 715 905
e 715 725
e 718 904
e 719 761
e 722 808
e 723 963
e 725 851
e 725 962
e 725 740
e 726 971
e 730 739
e 730 738
e 731 757
e 732 951
e 734 815
e 734 973
e 734 985
e 735 738
e 736 998
e 736 936
e 738 974
e 738 764
e 739 924
e 741 858
e 741 903
e 742 952
e 744 971
e 745 845
e 747 796
e 748 787
e 749 944
e 749 776
e 752 860
e 753 950
e 755 876
e 755 882
e 757 838
e 757 825
e 757 992
e 758 773
e 758 969
e 759 944
e 761 850
e 761 970
e 764 856
e 765 775
e 765 776
e 769 815
e 770 921
e 770 880
e 771 896
e 772 872
e 772 896
e 773 781
e 775 789
e 777 826
e 777 865
e 777 849
e 779 882
e 781 821
e 782 994
e 782 860
e 783 950
e 783 973
e 787 859
e 788 996
e 788 826
e 789 988
e 789 1000
e 791 848
e 796 892
e 801 984
e 803 995
e 805 831
e 807 865
e 808 993
e 811 943
e 812 870
e 812 837
e 813 905
e 813 953
e 815 835
e 821 894
e 822 911
e 823 988
e 825 845
e 827 969
e 827 831
e 827 938
e 829 936
e 831 985
e 831 994
e 831 962
e 831 982
e 832 960
e 833 909
e 835 873
e 835 931
e 835 910
e 836 864
e 838 948
e 838 893
e 839 873
e 840 955
e 840 876
e 840 884
e 840 864
e 841 863
e 842 943
e 842 912
e 844 899
e 848 991
e 849 885
e 850 927
e 850 898
e 858 917
e 861 868
e 863 910
e 871 887
e 871 965
e 879 898
e 880 938
e 882 995
e 885 941
e 886 984
e 887 918
e 887 968
e 888 954
e 891 905
e 892 994
e 893 944
e 897 995
e 898 989
e 898 932
e 901 965
e 903 971
e 904 941
e 907 921
e 917 968
e 918 966
e 921 962
e 929 981
e 935 948
e 952 982
e 960 962
e 965 969
e 981 1000
e 983 993
